54
100
79	2
78	4
77	1
76	4
75	1
73	2
72	1
71	3
70	1
69	2
68	1
67	2
65	3
64	1
62	3
60	2
59	1
58	1
56	2
55	1
54	1
53	1
52	3
51	1
50	2
48	1
47	2
46	2
45	3
43	2
42	1
39	2
38	1
36	2
35	2
34	1
32	1
31	2
29	1
28	1
27	3
26	2
25	2
24	2
23	1
22	5
21	1
16	1
15	3
14	1
13	1
12	3
11	3
10	2
